instances/knapsack/discrete_knapsack_uncertainty/knapsack_130_8.lp
\ Model knapsack_130_8
\ LP format - for model browsing. Use MPS format to capture full model detail.
\ Signature: 0x8c644a484ac146d4
Minimize
  - 56 x[0] - 68 x[1] - 38 x[2] - 54 x[3] - 27 x[4] - 31 x[5] - 7 x[6]
   - 17 x[7] - 28 x[8] - 8 x[9] - 89 x[10] - 69 x[11] - 93 x[12] - 16 x[13]
   - x[14] - 10 x[15] - 8 x[16] - 76 x[17] - 100 x[18] - 23 x[19]
   - 19 x[20] - 53 x[21] - 50 x[22] - 58 x[23] - 47 x[24] - 68 x[25]
   - 30 x[26] - 37 x[27] - 16 x[28] - 18 x[29] - 55 x[30] - 90 x[31]
   - 38 x[32] - 41 x[33] - 73 x[34] - 55 x[35] - 75 x[36] - 25 x[37]
   - 72 x[38] - 77 x[39] - 74 x[40] - 55 x[41] - 27 x[42] - 73 x[43]
   - 60 x[44] - 77 x[45] - 62 x[46] - 86 x[47] - 54 x[48] - 3 x[49]
   - 93 x[50] - 52 x[51] - 85 x[52] - 23 x[53] - 18 x[54] - 84 x[55]
   - 72 x[56] - 66 x[57] - 38 x[58] - 61 x[59] - 62 x[60] - 60 x[61]
   - 47 x[62] - 91 x[63] - 44 x[64] - 11 x[65] - 95 x[66] - 43 x[67]
   - 78 x[68] - 63 x[69] - 55 x[70] - 57 x[71] - 59 x[72] - 79 x[73]
   - 36 x[74] - 44 x[75] - 12 x[76] - 23 x[77] - 30 x[78] - 73 x[79]
   - x[80] - 4 x[81] - 39 x[82] - 92 x[83] - 39 x[84] - 26 x[85] - 36 x[86]
   - 69 x[87] - 30 x[88] - 52 x[89] - 76 x[90] - 27 x[91] - 59 x[92]
   - 26 x[93] - 66 x[94] - 88 x[95] - 51 x[96] - 50 x[97] - 50 x[98]
   - 74 x[99] - 46 x[100] - 99 x[101] - 88 x[102] - 59 x[103] - 5 x[104]
   - 69 x[105] - 60 x[106] - 74 x[107] - 80 x[108] - 10 x[109] - 47 x[110]
   - 8 x[111] - 95 x[112] - 5 x[113] - 96 x[114] - 39 x[115] - 97 x[116]
   - 47 x[117] - 72 x[118] - x[119] - 59 x[120] - 24 x[121] - 68 x[122]
   - 33 x[123] - 21 x[124] - 22 x[125] - 30 x[126] - 28 x[127] - 93 x[128]
   - 62 x[129]
Subject To
 primal_upper: 3 x[0] + 20 x[1] + 50 x[2] + 51 x[3] + 64 x[4] + 93 x[5]
   + 77 x[6] + 83 x[7] + 61 x[8] + 58 x[9] + 71 x[10] + 23 x[11] + 60 x[12]
   + 32 x[13] + 76 x[14] + 44 x[15] + 37 x[16] + 72 x[17] + 13 x[18]
   + 26 x[19] + 93 x[20] + 3 x[21] + 84 x[22] + 22 x[23] + 56 x[24]
   + 92 x[25] + 94 x[26] + 15 x[27] + 97 x[28] + 71 x[29] + x[30]
   + 59 x[31] + 91 x[32] + 41 x[33] + 28 x[34] + 97 x[35] + 52 x[36]
   + 68 x[37] + 92 x[38] + 62 x[39] + 35 x[40] + 21 x[41] + 94 x[42]
   + 73 x[43] + 75 x[44] + 50 x[45] + 5 x[46] + 65 x[47] + 75 x[48]
   + 44 x[49] + 46 x[50] + 16 x[51] + 5 x[52] + 68 x[53] + 52 x[54]
   + 7 x[55] + 33 x[56] + 50 x[57] + 96 x[58] + 62 x[59] + 84 x[60]
   + 86 x[61] + 47 x[62] + 2 x[63] + 55 x[64] + 60 x[65] + 60 x[66]
   + 54 x[67] + 100 x[68] + 89 x[69] + 97 x[70] + 81 x[71] + 42 x[72]
   + 79 x[73] + 31 x[74] + 84 x[75] + 10 x[76] + 51 x[77] + 48 x[78]
   + 82 x[79] + 41 x[80] + 97 x[81] + 90 x[82] + 53 x[83] + 61 x[84]
   + 65 x[85] + 59 x[86] + 32 x[87] + 2 x[88] + 87 x[89] + 60 x[90]
   + 28 x[91] + 8 x[92] + 91 x[93] + 28 x[94] + 77 x[95] + 41 x[96]
   + 96 x[97] + 52 x[98] + 44 x[99] + 5 x[100] + 8 x[101] + 70 x[102]
   + 64 x[103] + 41 x[104] + 18 x[105] + 31 x[106] + 98 x[107] + 86 x[108]
   + 73 x[109] + 50 x[110] + 19 x[111] + 93 x[112] + 41 x[113] + 77 x[114]
   + 74 x[115] + 27 x[116] + 25 x[117] + 73 x[118] + 60 x[119] + 79 x[120]
   + 56 x[121] + 99 x[122] + 78 x[123] + 13 x[124] + 30 x[125] + 99 x[126]
   + 39 x[127] + 10 x[128] + 39 x[129] + 0.3 r[0] + 2 r[1] + 5 r[2]
   + 5.1 r[3] + 6.4 r[4] + 9.3 r[5] + 7.7 r[6] + 8.3 r[7] + 6.1 r[8]
   + 5.8 r[9] + 7.1 r[10] + 2.3 r[11] + 6 r[12] + 3.2 r[13] + 7.6 r[14]
   + 4.4 r[15] + 3.7 r[16] + 7.2 r[17] + 1.3 r[18] + 2.6 r[19] + 9.3 r[20]
   + 0.3 r[21] + 8.4 r[22] + 2.2 r[23] + 5.6 r[24] + 9.2 r[25] + 9.4 r[26]
   + 1.5 r[27] + 9.7 r[28] + 7.1 r[29] + 0.1 r[30] + 5.9 r[31] + 9.1 r[32]
   + 4.1 r[33] + 2.8 r[34] + 9.7 r[35] + 5.2 r[36] + 6.8 r[37] + 9.2 r[38]
   + 6.2 r[39] + 3.5 r[40] + 2.1 r[41] + 9.4 r[42] + 7.3 r[43] + 7.5 r[44]
   + 5 r[45] + 0.5 r[46] + 6.5 r[47] + 7.5 r[48] + 4.4 r[49] + 4.6 r[50]
   + 1.6 r[51] + 0.5 r[52] + 6.8 r[53] + 5.2 r[54] + 0.7 r[55] + 3.3 r[56]
   + 5 r[57] + 9.6 r[58] + 6.2 r[59] + 8.4 r[60] + 8.6 r[61] + 4.7 r[62]
   + 0.2 r[63] + 5.5 r[64] + 6 r[65] + 6 r[66] + 5.4 r[67] + 10 r[68]
   + 8.9 r[69] + 9.7 r[70] + 8.1 r[71] + 4.2 r[72] + 7.9 r[73] + 3.1 r[74]
   + 8.4 r[75] + r[76] + 5.1 r[77] + 4.8 r[78] + 8.2 r[79] + 4.1 r[80]
   + 9.7 r[81] + 9 r[82] + 5.3 r[83] + 6.1 r[84] + 6.5 r[85] + 5.9 r[86]
   + 3.2 r[87] + 0.2 r[88] + 8.7 r[89] + 6 r[90] + 2.8 r[91] + 0.8 r[92]
   + 9.1 r[93] + 2.8 r[94] + 7.7 r[95] + 4.1 r[96] + 9.6 r[97] + 5.2 r[98]
   + 4.4 r[99] + 0.5 r[100] + 0.8 r[101] + 7 r[102] + 6.4 r[103]
   + 4.1 r[104] + 1.8 r[105] + 3.1 r[106] + 9.8 r[107] + 8.6 r[108]
   + 7.3 r[109] + 5 r[110] + 1.9 r[111] + 9.3 r[112] + 4.1 r[113]
   + 7.7 r[114] + 7.4 r[115] + 2.7 r[116] + 2.5 r[117] + 7.3 r[118]
   + 6 r[119] + 7.9 r[120] + 5.6 r[121] + 9.9 r[122] + 7.8 r[123]
   + 1.3 r[124] + 3 r[125] + 9.9 r[126] + 3.9 r[127] + r[128] + 3.9 r[129]
   <= 679
 primal_lower: 1.365727656159724 x[0] + 0.7272942136235901 x[1]
   + 2.28391530191157 x[2] + 4.038587730771434 x[3]
   + 1.005913598511497 x[4] + 0.3180191664910629 x[5]
   + 2.474264017885862 x[6] + 1.833858994594621 x[7]
   + 2.891703861268464 x[8] + 1.975412747790185 x[9]
   + 0.4390906384282704 x[10] + 0.8273177287451721 x[11]
   + 2.644200866590283 x[12] + 1.842403576593663 x[13]
   + 3.590886434109592 x[14] + 0.794077524714959 x[15]
   + 4.124107154730985 x[16] + 0.1783805786545266 x[17]
   + 2.595376508936252 x[18] + 3.773425231339965 x[19]
   + 2.803960005824752 x[20] + 1.531724320357681 x[21]
   + 3.463260983842846 x[22] + 3.873573234683538 x[23]
   + 0.871050123784138 x[24] + 2.099920565909714 x[25]
   + 1.481736171794022 x[26] + 1.758164016775102 x[27]
   + 4.226035264566409 x[28] + 0.5982075713794685 x[29]
   + 1.313949004966662 x[30] + 4.027798432440718 x[31]
   + 4.097894663198951 x[32] + 1.362551014936196 x[33]
   + 1.083474921654108 x[34] + 3.724250904030639 x[35]
   + 0.0103608774286805 x[36] + 1.931309293623355 x[37]
   + 0.3818972689836097 x[38] + 1.888822594107659 x[39]
   + 3.773273315593279 x[40] + 4.324095336097074 x[41]
   + 3.367772722297789 x[42] + 2.312612824562861 x[43]
   + 1.797109561964573 x[44] + 1.884203256052936 x[45]
   + 3.734199423787273 x[46] + 1.043659151709455 x[47]
   + 3.287666338936555 x[48] + 2.117571377946359 x[49]
   + 0.1881421409361498 x[50] + 3.412632523096675 x[51]
   + 2.117655849037865 x[52] + 3.984497796878818 x[53]
   + 2.110397199309552 x[54] + 2.443063308486813 x[55]
   + 1.674155052658491 x[56] + 2.027682592558231 x[57]
   + 0.0948304140275901 x[58] + 0.0645627538792171 x[59]
   + 3.455027357096395 x[60] + 0.1739946250111465 x[61]
   + 1.515717699751156 x[62] + 1.579886437267801 x[63]
   + 0.3397758663697995 x[64] + 2.843926534726639 x[65]
   + 1.792381269843895 x[66] + 3.668869739608001 x[67]
   + 4.363358946468992 x[68] + 2.052460070581842 x[69]
   + 0.8201410748251057 x[70] + 1.519858089632992 x[71]
   + 3.099836348483675 x[72] + 4.077220373957972 x[73]
   + 2.416125999821964 x[74] + 3.738247233201735 x[75]
   + 0.4888775315298751 x[76] + 4.014138374922909 x[77]
   + 2.035282354777808 x[78] + 2.302593894644454 x[79]
   + 1.362530798688959 x[80] + 3.52441303309581 x[81]
   + 2.572418879562315 x[82] + 0.7813048362237539 x[83]
   + 3.866537746531955 x[84] + 0.8330693312593529 x[85]
   + 2.404032798127564 x[86] + 2.928102832225374 x[87]
   + 0.7625214205526673 x[88] + 2.862550111021441 x[89]
   + 3.990999182858898 x[90] + 2.781596141100368 x[91]
   + 3.780472653088267 x[92] + 0.8427965390786583 x[93]
   + 0.0501451718947055 x[94] + 3.610056295719459 x[95]
   + 0.8921964582114559 x[96] + 3.284222545551638 x[97]
   + 0.8873716051080081 x[98] + 3.654429190223484 x[99]
   + 2.153076039113507 x[100] + 4.037996955077992 x[101]
   + 0.5047416392842967 x[102] + 0.3699029285917504 x[103]
   + 1.547610964599225 x[104] + 1.513174361804311 x[105]
   + 3.278583003962716 x[106] + 4.453537323595231 x[107]
   + 4.006106739413194 x[108] + 1.181140700821433 x[109]
   + 3.6388509174229 x[110] + 3.770317979884149 x[111]
   + 3.225212005269655 x[112] + 0.8567318297874159 x[113]
   + 2.746325118260405 x[114] + 1.82450733255738 x[115]
   + 1.146740831797078 x[116] + 2.028068660732526 x[117]
   + 4.053300062132464 x[118] + 2.432597829545101 x[119]
   + 3.249793557295924 x[120] + 2.638668948192873 x[121]
   + 1.550686801814162 x[122] + 4.612551723512355 x[123]
   + 3.473866483088919 x[124] + 0.0249233083606982 x[125]
   + 3.535171554577487 x[126] + 0.6178004189294238 x[127]
   + 2.200136851819435 x[128] + 3.058485576706634 x[129] + 10 u[0]
   + 91 u[1] + u[2] + 10 u[3] + 23 u[4] + 96 u[5] + 92 u[6] + 34 u[7]
   + 36 u[8] + 97 u[9] + 18 u[10] + 6 u[11] + 99 u[12] + 75 u[13]
   + 43 u[14] + 91 u[15] + 24 u[16] + 43 u[17] + 20 u[18] + 65 u[19]
   + 32 u[20] + 6 u[21] + 35 u[22] + 13 u[23] + 51 u[24] + 83 u[25] + u[26]
   + 42 u[27] + 24 u[28] + 10 u[29] + 64 u[30] + 66 u[31] + 2 u[32]
   + 12 u[33] + 11 u[34] + 20 u[35] + 23 u[36] + 95 u[37] + 71 u[38]
   + 69 u[39] + 86 u[40] + 20 u[41] + 81 u[42] + 88 u[43] + 90 u[44]
   + 73 u[45] + 4 u[46] + 20 u[47] + 34 u[48] + 87 u[49] + 13 u[50]
   + 75 u[51] + 96 u[52] + 23 u[53] + 7 u[54] + 54 u[55] + 60 u[56]
   + 85 u[57] + 31 u[58] + 17 u[59] + 47 u[60] + 57 u[61] + 66 u[62]
   + 17 u[63] + 18 u[64] + 47 u[65] + 55 u[66] + 97 u[67] + 55 u[68]
   + 44 u[69] + 20 u[70] + 64 u[71] + 65 u[72] + 94 u[73] + 42 u[74]
   + 47 u[75] + 25 u[76] + 94 u[77] + 95 u[78] + 17 u[79] + 16 u[80]
   + 96 u[81] + 81 u[82] + 12 u[83] + 100 u[84] + 36 u[85] + 2 u[86]
   + 79 u[87] + 13 u[88] + 50 u[89] + 35 u[90] + 59 u[91] + 23 u[92]
   + 2 u[93] + 35 u[94] + 44 u[95] + 56 u[96] + 19 u[97] + 87 u[98]
   + 91 u[99] + 100 u[100] + 95 u[101] + 37 u[102] + 23 u[103] + 16 u[104]
   + 81 u[105] + 86 u[106] + 17 u[107] + 65 u[108] + 44 u[109] + 77 u[110]
   + 62 u[111] + 80 u[112] + 32 u[113] + 56 u[114] + 57 u[115] + 66 u[116]
   + 68 u[117] + 28 u[118] + 71 u[119] + 2 u[120] + 7 u[121] + 6 u[122]
   + 57 u[123] + 24 u[124] + 69 u[125] + 6 u[126] + 78 u[127] + 73 u[128]
   + 94 u[129] <= 75235
 mccormick1[0]: - u[0] + r[0] <= 0
 mccormick1[1]: - u[1] + r[1] <= 0
 mccormick1[2]: - u[2] + r[2] <= 0
 mccormick1[3]: - u[3] + r[3] <= 0
 mccormick1[4]: - u[4] + r[4] <= 0
 mccormick1[5]: - u[5] + r[5] <= 0
 mccormick1[6]: - u[6] + r[6] <= 0
 mccormick1[7]: - u[7] + r[7] <= 0
 mccormick1[8]: - u[8] + r[8] <= 0
 mccormick1[9]: - u[9] + r[9] <= 0
 mccormick1[10]: - u[10] + r[10] <= 0
 mccormick1[11]: - u[11] + r[11] <= 0
 mccormick1[12]: - u[12] + r[12] <= 0
 mccormick1[13]: - u[13] + r[13] <= 0
 mccormick1[14]: - u[14] + r[14] <= 0
 mccormick1[15]: - u[15] + r[15] <= 0
 mccormick1[16]: - u[16] + r[16] <= 0
 mccormick1[17]: - u[17] + r[17] <= 0
 mccormick1[18]: - u[18] + r[18] <= 0
 mccormick1[19]: - u[19] + r[19] <= 0
 mccormick1[20]: - u[20] + r[20] <= 0
 mccormick1[21]: - u[21] + r[21] <= 0
 mccormick1[22]: - u[22] + r[22] <= 0
 mccormick1[23]: - u[23] + r[23] <= 0
 mccormick1[24]: - u[24] + r[24] <= 0
 mccormick1[25]: - u[25] + r[25] <= 0
 mccormick1[26]: - u[26] + r[26] <= 0
 mccormick1[27]: - u[27] + r[27] <= 0
 mccormick1[28]: - u[28] + r[28] <= 0
 mccormick1[29]: - u[29] + r[29] <= 0
 mccormick1[30]: - u[30] + r[30] <= 0
 mccormick1[31]: - u[31] + r[31] <= 0
 mccormick1[32]: - u[32] + r[32] <= 0
 mccormick1[33]: - u[33] + r[33] <= 0
 mccormick1[34]: - u[34] + r[34] <= 0
 mccormick1[35]: - u[35] + r[35] <= 0
 mccormick1[36]: - u[36] + r[36] <= 0
 mccormick1[37]: - u[37] + r[37] <= 0
 mccormick1[38]: - u[38] + r[38] <= 0
 mccormick1[39]: - u[39] + r[39] <= 0
 mccormick1[40]: - u[40] + r[40] <= 0
 mccormick1[41]: - u[41] + r[41] <= 0
 mccormick1[42]: - u[42] + r[42] <= 0
 mccormick1[43]: - u[43] + r[43] <= 0
 mccormick1[44]: - u[44] + r[44] <= 0
 mccormick1[45]: - u[45] + r[45] <= 0
 mccormick1[46]: - u[46] + r[46] <= 0
 mccormick1[47]: - u[47] + r[47] <= 0
 mccormick1[48]: - u[48] + r[48] <= 0
 mccormick1[49]: - u[49] + r[49] <= 0
 mccormick1[50]: - u[50] + r[50] <= 0
 mccormick1[51]: - u[51] + r[51] <= 0
 mccormick1[52]: - u[52] + r[52] <= 0
 mccormick1[53]: - u[53] + r[53] <= 0
 mccormick1[54]: - u[54] + r[54] <= 0
 mccormick1[55]: - u[55] + r[55] <= 0
 mccormick1[56]: - u[56] + r[56] <= 0
 mccormick1[57]: - u[57] + r[57] <= 0
 mccormick1[58]: - u[58] + r[58] <= 0
 mccormick1[59]: - u[59] + r[59] <= 0
 mccormick1[60]: - u[60] + r[60] <= 0
 mccormick1[61]: - u[61] + r[61] <= 0
 mccormick1[62]: - u[62] + r[62] <= 0
 mccormick1[63]: - u[63] + r[63] <= 0
 mccormick1[64]: - u[64] + r[64] <= 0
 mccormick1[65]: - u[65] + r[65] <= 0
 mccormick1[66]: - u[66] + r[66] <= 0
 mccormick1[67]: - u[67] + r[67] <= 0
 mccormick1[68]: - u[68] + r[68] <= 0
 mccormick1[69]: - u[69] + r[69] <= 0
 mccormick1[70]: - u[70] + r[70] <= 0
 mccormick1[71]: - u[71] + r[71] <= 0
 mccormick1[72]: - u[72] + r[72] <= 0
 mccormick1[73]: - u[73] + r[73] <= 0
 mccormick1[74]: - u[74] + r[74] <= 0
 mccormick1[75]: - u[75] + r[75] <= 0
 mccormick1[76]: - u[76] + r[76] <= 0
 mccormick1[77]: - u[77] + r[77] <= 0
 mccormick1[78]: - u[78] + r[78] <= 0
 mccormick1[79]: - u[79] + r[79] <= 0
 mccormick1[80]: - u[80] + r[80] <= 0
 mccormick1[81]: - u[81] + r[81] <= 0
 mccormick1[82]: - u[82] + r[82] <= 0
 mccormick1[83]: - u[83] + r[83] <= 0
 mccormick1[84]: - u[84] + r[84] <= 0
 mccormick1[85]: - u[85] + r[85] <= 0
 mccormick1[86]: - u[86] + r[86] <= 0
 mccormick1[87]: - u[87] + r[87] <= 0
 mccormick1[88]: - u[88] + r[88] <= 0
 mccormick1[89]: - u[89] + r[89] <= 0
 mccormick1[90]: - u[90] + r[90] <= 0
 mccormick1[91]: - u[91] + r[91] <= 0
 mccormick1[92]: - u[92] + r[92] <= 0
 mccormick1[93]: - u[93] + r[93] <= 0
 mccormick1[94]: - u[94] + r[94] <= 0
 mccormick1[95]: - u[95] + r[95] <= 0
 mccormick1[96]: - u[96] + r[96] <= 0
 mccormick1[97]: - u[97] + r[97] <= 0
 mccormick1[98]: - u[98] + r[98] <= 0
 mccormick1[99]: - u[99] + r[99] <= 0
 mccormick1[100]: - u[100] + r[100] <= 0
 mccormick1[101]: - u[101] + r[101] <= 0
 mccormick1[102]: - u[102] + r[102] <= 0
 mccormick1[103]: - u[103] + r[103] <= 0
 mccormick1[104]: - u[104] + r[104] <= 0
 mccormick1[105]: - u[105] + r[105] <= 0
 mccormick1[106]: - u[106] + r[106] <= 0
 mccormick1[107]: - u[107] + r[107] <= 0
 mccormick1[108]: - u[108] + r[108] <= 0
 mccormick1[109]: - u[109] + r[109] <= 0
 mccormick1[110]: - u[110] + r[110] <= 0
 mccormick1[111]: - u[111] + r[111] <= 0
 mccormick1[112]: - u[112] + r[112] <= 0
 mccormick1[113]: - u[113] + r[113] <= 0
 mccormick1[114]: - u[114] + r[114] <= 0
 mccormick1[115]: - u[115] + r[115] <= 0
 mccormick1[116]: - u[116] + r[116] <= 0
 mccormick1[117]: - u[117] + r[117] <= 0
 mccormick1[118]: - u[118] + r[118] <= 0
 mccormick1[119]: - u[119] + r[119] <= 0
 mccormick1[120]: - u[120] + r[120] <= 0
 mccormick1[121]: - u[121] + r[121] <= 0
 mccormick1[122]: - u[122] + r[122] <= 0
 mccormick1[123]: - u[123] + r[123] <= 0
 mccormick1[124]: - u[124] + r[124] <= 0
 mccormick1[125]: - u[125] + r[125] <= 0
 mccormick1[126]: - u[126] + r[126] <= 0
 mccormick1[127]: - u[127] + r[127] <= 0
 mccormick1[128]: - u[128] + r[128] <= 0
 mccormick1[129]: - u[129] + r[129] <= 0
 mccormick2[0]: - x[0] + r[0] <= 0
 mccormick2[1]: - x[1] + r[1] <= 0
 mccormick2[2]: - x[2] + r[2] <= 0
 mccormick2[3]: - x[3] + r[3] <= 0
 mccormick2[4]: - x[4] + r[4] <= 0
 mccormick2[5]: - x[5] + r[5] <= 0
 mccormick2[6]: - x[6] + r[6] <= 0
 mccormick2[7]: - x[7] + r[7] <= 0
 mccormick2[8]: - x[8] + r[8] <= 0
 mccormick2[9]: - x[9] + r[9] <= 0
 mccormick2[10]: - x[10] + r[10] <= 0
 mccormick2[11]: - x[11] + r[11] <= 0
 mccormick2[12]: - x[12] + r[12] <= 0
 mccormick2[13]: - x[13] + r[13] <= 0
 mccormick2[14]: - x[14] + r[14] <= 0
 mccormick2[15]: - x[15] + r[15] <= 0
 mccormick2[16]: - x[16] + r[16] <= 0
 mccormick2[17]: - x[17] + r[17] <= 0
 mccormick2[18]: - x[18] + r[18] <= 0
 mccormick2[19]: - x[19] + r[19] <= 0
 mccormick2[20]: - x[20] + r[20] <= 0
 mccormick2[21]: - x[21] + r[21] <= 0
 mccormick2[22]: - x[22] + r[22] <= 0
 mccormick2[23]: - x[23] + r[23] <= 0
 mccormick2[24]: - x[24] + r[24] <= 0
 mccormick2[25]: - x[25] + r[25] <= 0
 mccormick2[26]: - x[26] + r[26] <= 0
 mccormick2[27]: - x[27] + r[27] <= 0
 mccormick2[28]: - x[28] + r[28] <= 0
 mccormick2[29]: - x[29] + r[29] <= 0
 mccormick2[30]: - x[30] + r[30] <= 0
 mccormick2[31]: - x[31] + r[31] <= 0
 mccormick2[32]: - x[32] + r[32] <= 0
 mccormick2[33]: - x[33] + r[33] <= 0
 mccormick2[34]: - x[34] + r[34] <= 0
 mccormick2[35]: - x[35] + r[35] <= 0
 mccormick2[36]: - x[36] + r[36] <= 0
 mccormick2[37]: - x[37] + r[37] <= 0
 mccormick2[38]: - x[38] + r[38] <= 0
 mccormick2[39]: - x[39] + r[39] <= 0
 mccormick2[40]: - x[40] + r[40] <= 0
 mccormick2[41]: - x[41] + r[41] <= 0
 mccormick2[42]: - x[42] + r[42] <= 0
 mccormick2[43]: - x[43] + r[43] <= 0
 mccormick2[44]: - x[44] + r[44] <= 0
 mccormick2[45]: - x[45] + r[45] <= 0
 mccormick2[46]: - x[46] + r[46] <= 0
 mccormick2[47]: - x[47] + r[47] <= 0
 mccormick2[48]: - x[48] + r[48] <= 0
 mccormick2[49]: - x[49] + r[49] <= 0
 mccormick2[50]: - x[50] + r[50] <= 0
 mccormick2[51]: - x[51] + r[51] <= 0
 mccormick2[52]: - x[52] + r[52] <= 0
 mccormick2[53]: - x[53] + r[53] <= 0
 mccormick2[54]: - x[54] + r[54] <= 0
 mccormick2[55]: - x[55] + r[55] <= 0
 mccormick2[56]: - x[56] + r[56] <= 0
 mccormick2[57]: - x[57] + r[57] <= 0
 mccormick2[58]: - x[58] + r[58] <= 0
 mccormick2[59]: - x[59] + r[59] <= 0
 mccormick2[60]: - x[60] + r[60] <= 0
 mccormick2[61]: - x[61] + r[61] <= 0
 mccormick2[62]: - x[62] + r[62] <= 0
 mccormick2[63]: - x[63] + r[63] <= 0
 mccormick2[64]: - x[64] + r[64] <= 0
 mccormick2[65]: - x[65] + r[65] <= 0
 mccormick2[66]: - x[66] + r[66] <= 0
 mccormick2[67]: - x[67] + r[67] <= 0
 mccormick2[68]: - x[68] + r[68] <= 0
 mccormick2[69]: - x[69] + r[69] <= 0
 mccormick2[70]: - x[70] + r[70] <= 0
 mccormick2[71]: - x[71] + r[71] <= 0
 mccormick2[72]: - x[72] + r[72] <= 0
 mccormick2[73]: - x[73] + r[73] <= 0
 mccormick2[74]: - x[74] + r[74] <= 0
 mccormick2[75]: - x[75] + r[75] <= 0
 mccormick2[76]: - x[76] + r[76] <= 0
 mccormick2[77]: - x[77] + r[77] <= 0
 mccormick2[78]: - x[78] + r[78] <= 0
 mccormick2[79]: - x[79] + r[79] <= 0
 mccormick2[80]: - x[80] + r[80] <= 0
 mccormick2[81]: - x[81] + r[81] <= 0
 mccormick2[82]: - x[82] + r[82] <= 0
 mccormick2[83]: - x[83] + r[83] <= 0
 mccormick2[84]: - x[84] + r[84] <= 0
 mccormick2[85]: - x[85] + r[85] <= 0
 mccormick2[86]: - x[86] + r[86] <= 0
 mccormick2[87]: - x[87] + r[87] <= 0
 mccormick2[88]: - x[88] + r[88] <= 0
 mccormick2[89]: - x[89] + r[89] <= 0
 mccormick2[90]: - x[90] + r[90] <= 0
 mccormick2[91]: - x[91] + r[91] <= 0
 mccormick2[92]: - x[92] + r[92] <= 0
 mccormick2[93]: - x[93] + r[93] <= 0
 mccormick2[94]: - x[94] + r[94] <= 0
 mccormick2[95]: - x[95] + r[95] <= 0
 mccormick2[96]: - x[96] + r[96] <= 0
 mccormick2[97]: - x[97] + r[97] <= 0
 mccormick2[98]: - x[98] + r[98] <= 0
 mccormick2[99]: - x[99] + r[99] <= 0
 mccormick2[100]: - x[100] + r[100] <= 0
 mccormick2[101]: - x[101] + r[101] <= 0
 mccormick2[102]: - x[102] + r[102] <= 0
 mccormick2[103]: - x[103] + r[103] <= 0
 mccormick2[104]: - x[104] + r[104] <= 0
 mccormick2[105]: - x[105] + r[105] <= 0
 mccormick2[106]: - x[106] + r[106] <= 0
 mccormick2[107]: - x[107] + r[107] <= 0
 mccormick2[108]: - x[108] + r[108] <= 0
 mccormick2[109]: - x[109] + r[109] <= 0
 mccormick2[110]: - x[110] + r[110] <= 0
 mccormick2[111]: - x[111] + r[111] <= 0
 mccormick2[112]: - x[112] + r[112] <= 0
 mccormick2[113]: - x[113] + r[113] <= 0
 mccormick2[114]: - x[114] + r[114] <= 0
 mccormick2[115]: - x[115] + r[115] <= 0
 mccormick2[116]: - x[116] + r[116] <= 0
 mccormick2[117]: - x[117] + r[117] <= 0
 mccormick2[118]: - x[118] + r[118] <= 0
 mccormick2[119]: - x[119] + r[119] <= 0
 mccormick2[120]: - x[120] + r[120] <= 0
 mccormick2[121]: - x[121] + r[121] <= 0
 mccormick2[122]: - x[122] + r[122] <= 0
 mccormick2[123]: - x[123] + r[123] <= 0
 mccormick2[124]: - x[124] + r[124] <= 0
 mccormick2[125]: - x[125] + r[125] <= 0
 mccormick2[126]: - x[126] + r[126] <= 0
 mccormick2[127]: - x[127] + r[127] <= 0
 mccormick2[128]: - x[128] + r[128] <= 0
 mccormick2[129]: - x[129] + r[129] <= 0
 mccormick3[0]: x[0] + u[0] - r[0] <= 1
 mccormick3[1]: x[1] + u[1] - r[1] <= 1
 mccormick3[2]: x[2] + u[2] - r[2] <= 1
 mccormick3[3]: x[3] + u[3] - r[3] <= 1
 mccormick3[4]: x[4] + u[4] - r[4] <= 1
 mccormick3[5]: x[5] + u[5] - r[5] <= 1
 mccormick3[6]: x[6] + u[6] - r[6] <= 1
 mccormick3[7]: x[7] + u[7] - r[7] <= 1
 mccormick3[8]: x[8] + u[8] - r[8] <= 1
 mccormick3[9]: x[9] + u[9] - r[9] <= 1
 mccormick3[10]: x[10] + u[10] - r[10] <= 1
 mccormick3[11]: x[11] + u[11] - r[11] <= 1
 mccormick3[12]: x[12] + u[12] - r[12] <= 1
 mccormick3[13]: x[13] + u[13] - r[13] <= 1
 mccormick3[14]: x[14] + u[14] - r[14] <= 1
 mccormick3[15]: x[15] + u[15] - r[15] <= 1
 mccormick3[16]: x[16] + u[16] - r[16] <= 1
 mccormick3[17]: x[17] + u[17] - r[17] <= 1
 mccormick3[18]: x[18] + u[18] - r[18] <= 1
 mccormick3[19]: x[19] + u[19] - r[19] <= 1
 mccormick3[20]: x[20] + u[20] - r[20] <= 1
 mccormick3[21]: x[21] + u[21] - r[21] <= 1
 mccormick3[22]: x[22] + u[22] - r[22] <= 1
 mccormick3[23]: x[23] + u[23] - r[23] <= 1
 mccormick3[24]: x[24] + u[24] - r[24] <= 1
 mccormick3[25]: x[25] + u[25] - r[25] <= 1
 mccormick3[26]: x[26] + u[26] - r[26] <= 1
 mccormick3[27]: x[27] + u[27] - r[27] <= 1
 mccormick3[28]: x[28] + u[28] - r[28] <= 1
 mccormick3[29]: x[29] + u[29] - r[29] <= 1
 mccormick3[30]: x[30] + u[30] - r[30] <= 1
 mccormick3[31]: x[31] + u[31] - r[31] <= 1
 mccormick3[32]: x[32] + u[32] - r[32] <= 1
 mccormick3[33]: x[33] + u[33] - r[33] <= 1
 mccormick3[34]: x[34] + u[34] - r[34] <= 1
 mccormick3[35]: x[35] + u[35] - r[35] <= 1
 mccormick3[36]: x[36] + u[36] - r[36] <= 1
 mccormick3[37]: x[37] + u[37] - r[37] <= 1
 mccormick3[38]: x[38] + u[38] - r[38] <= 1
 mccormick3[39]: x[39] + u[39] - r[39] <= 1
 mccormick3[40]: x[40] + u[40] - r[40] <= 1
 mccormick3[41]: x[41] + u[41] - r[41] <= 1
 mccormick3[42]: x[42] + u[42] - r[42] <= 1
 mccormick3[43]: x[43] + u[43] - r[43] <= 1
 mccormick3[44]: x[44] + u[44] - r[44] <= 1
 mccormick3[45]: x[45] + u[45] - r[45] <= 1
 mccormick3[46]: x[46] + u[46] - r[46] <= 1
 mccormick3[47]: x[47] + u[47] - r[47] <= 1
 mccormick3[48]: x[48] + u[48] - r[48] <= 1
 mccormick3[49]: x[49] + u[49] - r[49] <= 1
 mccormick3[50]: x[50] + u[50] - r[50] <= 1
 mccormick3[51]: x[51] + u[51] - r[51] <= 1
 mccormick3[52]: x[52] + u[52] - r[52] <= 1
 mccormick3[53]: x[53] + u[53] - r[53] <= 1
 mccormick3[54]: x[54] + u[54] - r[54] <= 1
 mccormick3[55]: x[55] + u[55] - r[55] <= 1
 mccormick3[56]: x[56] + u[56] - r[56] <= 1
 mccormick3[57]: x[57] + u[57] - r[57] <= 1
 mccormick3[58]: x[58] + u[58] - r[58] <= 1
 mccormick3[59]: x[59] + u[59] - r[59] <= 1
 mccormick3[60]: x[60] + u[60] - r[60] <= 1
 mccormick3[61]: x[61] + u[61] - r[61] <= 1
 mccormick3[62]: x[62] + u[62] - r[62] <= 1
 mccormick3[63]: x[63] + u[63] - r[63] <= 1
 mccormick3[64]: x[64] + u[64] - r[64] <= 1
 mccormick3[65]: x[65] + u[65] - r[65] <= 1
 mccormick3[66]: x[66] + u[66] - r[66] <= 1
 mccormick3[67]: x[67] + u[67] - r[67] <= 1
 mccormick3[68]: x[68] + u[68] - r[68] <= 1
 mccormick3[69]: x[69] + u[69] - r[69] <= 1
 mccormick3[70]: x[70] + u[70] - r[70] <= 1
 mccormick3[71]: x[71] + u[71] - r[71] <= 1
 mccormick3[72]: x[72] + u[72] - r[72] <= 1
 mccormick3[73]: x[73] + u[73] - r[73] <= 1
 mccormick3[74]: x[74] + u[74] - r[74] <= 1
 mccormick3[75]: x[75] + u[75] - r[75] <= 1
 mccormick3[76]: x[76] + u[76] - r[76] <= 1
 mccormick3[77]: x[77] + u[77] - r[77] <= 1
 mccormick3[78]: x[78] + u[78] - r[78] <= 1
 mccormick3[79]: x[79] + u[79] - r[79] <= 1
 mccormick3[80]: x[80] + u[80] - r[80] <= 1
 mccormick3[81]: x[81] + u[81] - r[81] <= 1
 mccormick3[82]: x[82] + u[82] - r[82] <= 1
 mccormick3[83]: x[83] + u[83] - r[83] <= 1
 mccormick3[84]: x[84] + u[84] - r[84] <= 1
 mccormick3[85]: x[85] + u[85] - r[85] <= 1
 mccormick3[86]: x[86] + u[86] - r[86] <= 1
 mccormick3[87]: x[87] + u[87] - r[87] <= 1
 mccormick3[88]: x[88] + u[88] - r[88] <= 1
 mccormick3[89]: x[89] + u[89] - r[89] <= 1
 mccormick3[90]: x[90] + u[90] - r[90] <= 1
 mccormick3[91]: x[91] + u[91] - r[91] <= 1
 mccormick3[92]: x[92] + u[92] - r[92] <= 1
 mccormick3[93]: x[93] + u[93] - r[93] <= 1
 mccormick3[94]: x[94] + u[94] - r[94] <= 1
 mccormick3[95]: x[95] + u[95] - r[95] <= 1
 mccormick3[96]: x[96] + u[96] - r[96] <= 1
 mccormick3[97]: x[97] + u[97] - r[97] <= 1
 mccormick3[98]: x[98] + u[98] - r[98] <= 1
 mccormick3[99]: x[99] + u[99] - r[99] <= 1
 mccormick3[100]: x[100] + u[100] - r[100] <= 1
 mccormick3[101]: x[101] + u[101] - r[101] <= 1
 mccormick3[102]: x[102] + u[102] - r[102] <= 1
 mccormick3[103]: x[103] + u[103] - r[103] <= 1
 mccormick3[104]: x[104] + u[104] - r[104] <= 1
 mccormick3[105]: x[105] + u[105] - r[105] <= 1
 mccormick3[106]: x[106] + u[106] - r[106] <= 1
 mccormick3[107]: x[107] + u[107] - r[107] <= 1
 mccormick3[108]: x[108] + u[108] - r[108] <= 1
 mccormick3[109]: x[109] + u[109] - r[109] <= 1
 mccormick3[110]: x[110] + u[110] - r[110] <= 1
 mccormick3[111]: x[111] + u[111] - r[111] <= 1
 mccormick3[112]: x[112] + u[112] - r[112] <= 1
 mccormick3[113]: x[113] + u[113] - r[113] <= 1
 mccormick3[114]: x[114] + u[114] - r[114] <= 1
 mccormick3[115]: x[115] + u[115] - r[115] <= 1
 mccormick3[116]: x[116] + u[116] - r[116] <= 1
 mccormick3[117]: x[117] + u[117] - r[117] <= 1
 mccormick3[118]: x[118] + u[118] - r[118] <= 1
 mccormick3[119]: x[119] + u[119] - r[119] <= 1
 mccormick3[120]: x[120] + u[120] - r[120] <= 1
 mccormick3[121]: x[121] + u[121] - r[121] <= 1
 mccormick3[122]: x[122] + u[122] - r[122] <= 1
 mccormick3[123]: x[123] + u[123] - r[123] <= 1
 mccormick3[124]: x[124] + u[124] - r[124] <= 1
 mccormick3[125]: x[125] + u[125] - r[125] <= 1
 mccormick3[126]: x[126] + u[126] - r[126] <= 1
 mccormick3[127]: x[127] + u[127] - r[127] <= 1
 mccormick3[128]: x[128] + u[128] - r[128] <= 1
 mccormick3[129]: x[129] + u[129] - r[129] <= 1
Bounds
Binaries
 x[0] x[1] x[2] x[3] x[4] x[5] x[6] x[7] x[8] x[9] x[10] x[11] x[12] x[13]
 x[14] x[15] x[16] x[17] x[18] x[19] x[20] x[21] x[22] x[23] x[24] x[25]
 x[26] x[27] x[28] x[29] x[30] x[31] x[32] x[33] x[34] x[35] x[36] x[37]
 x[38] x[39] x[40] x[41] x[42] x[43] x[44] x[45] x[46] x[47] x[48] x[49]
 x[50] x[51] x[52] x[53] x[54] x[55] x[56] x[57] x[58] x[59] x[60] x[61]
 x[62] x[63] x[64] x[65] x[66] x[67] x[68] x[69] x[70] x[71] x[72] x[73]
 x[74] x[75] x[76] x[77] x[78] x[79] x[80] x[81] x[82] x[83] x[84] x[85]
 x[86] x[87] x[88] x[89] x[90] x[91] x[92] x[93] x[94] x[95] x[96] x[97]
 x[98] x[99] x[100] x[101] x[102] x[103] x[104] x[105] x[106] x[107] x[108]
 x[109] x[110] x[111] x[112] x[113] x[114] x[115] x[116] x[117] x[118]
 x[119] x[120] x[121] x[122] x[123] x[124] x[125] x[126] x[127] x[128]
 x[129] u[0] u[1] u[2] u[3] u[4] u[5] u[6] u[7] u[8] u[9] u[10] u[11] u[12]
 u[13] u[14] u[15] u[16] u[17] u[18] u[19] u[20] u[21] u[22] u[23] u[24]
 u[25] u[26] u[27] u[28] u[29] u[30] u[31] u[32] u[33] u[34] u[35] u[36]
 u[37] u[38] u[39] u[40] u[41] u[42] u[43] u[44] u[45] u[46] u[47] u[48]
 u[49] u[50] u[51] u[52] u[53] u[54] u[55] u[56] u[57] u[58] u[59] u[60]
 u[61] u[62] u[63] u[64] u[65] u[66] u[67] u[68] u[69] u[70] u[71] u[72]
 u[73] u[74] u[75] u[76] u[77] u[78] u[79] u[80] u[81] u[82] u[83] u[84]
 u[85] u[86] u[87] u[88] u[89] u[90] u[91] u[92] u[93] u[94] u[95] u[96]
 u[97] u[98] u[99] u[100] u[101] u[102] u[103] u[104] u[105] u[106] u[107]
 u[108] u[109] u[110] u[111] u[112] u[113] u[114] u[115] u[116] u[117]
 u[118] u[119] u[120] u[121] u[122] u[123] u[124] u[125] u[126] u[127]
 u[128] u[129] r[0] r[1] r[2] r[3] r[4] r[5] r[6] r[7] r[8] r[9] r[10]
 r[11] r[12] r[13] r[14] r[15] r[16] r[17] r[18] r[19] r[20] r[21] r[22]
 r[23] r[24] r[25] r[26] r[27] r[28] r[29] r[30] r[31] r[32] r[33] r[34]
 r[35] r[36] r[37] r[38] r[39] r[40] r[41] r[42] r[43] r[44] r[45] r[46]
 r[47] r[48] r[49] r[50] r[51] r[52] r[53] r[54] r[55] r[56] r[57] r[58]
 r[59] r[60] r[61] r[62] r[63] r[64] r[65] r[66] r[67] r[68] r[69] r[70]
 r[71] r[72] r[73] r[74] r[75] r[76] r[77] r[78] r[79] r[80] r[81] r[82]
 r[83] r[84] r[85] r[86] r[87] r[88] r[89] r[90] r[91] r[92] r[93] r[94]
 r[95] r[96] r[97] r[98] r[99] r[100] r[101] r[102] r[103] r[104] r[105]
 r[106] r[107] r[108] r[109] r[110] r[111] r[112] r[113] r[114] r[115]
 r[116] r[117] r[118] r[119] r[120] r[121] r[122] r[123] r[124] r[125]
 r[126] r[127] r[128] r[129]
End
