instances/knapsack/discrete/knapsack_130_8.kp
41013
130
679

3 0.3 56
20 2.0 68
50 5.0 38
51 5.1 54
64 6.4 27
93 9.3 31
77 7.7 7
83 8.3 17
61 6.1 28
58 5.8 8
71 7.1 89
23 2.3 69
60 6.0 93
32 3.2 16
76 7.6 1
44 4.4 10
37 3.7 8
72 7.2 76
13 1.3 100
26 2.6 23
93 9.3 19
3 0.3 53
84 8.4 50
22 2.2 58
56 5.6 47
92 9.2 68
94 9.4 30
15 1.5 37
97 9.7 16
71 7.1 18
1 0.1 55
59 5.9 90
91 9.1 38
41 4.1 41
28 2.8 73
97 9.7 55
52 5.2 75
68 6.8 25
92 9.2 72
62 6.2 77
35 3.5 74
21 2.1 55
94 9.4 27
73 7.3 73
75 7.5 60
50 5.0 77
5 0.5 62
65 6.5 86
75 7.5 54
44 4.4 3
46 4.6 93
16 1.6 52
5 0.5 85
68 6.8 23
52 5.2 18
7 0.7 84
33 3.3 72
50 5.0 66
96 9.6 38
62 6.2 61
84 8.4 62
86 8.6 60
47 4.7 47
2 0.2 91
55 5.5 44
60 6.0 11
60 6.0 95
54 5.4 43
100 10.0 78
89 8.9 63
97 9.7 55
81 8.1 57
42 4.2 59
79 7.9 79
31 3.1 36
84 8.4 44
10 1.0 12
51 5.1 23
48 4.8 30
82 8.2 73
41 4.1 1
97 9.7 4
90 9.0 39
53 5.3 92
61 6.1 39
65 6.5 26
59 5.9 36
32 3.2 69
2 0.2 30
87 8.7 52
60 6.0 76
28 2.8 27
8 0.8 59
91 9.1 26
28 2.8 66
77 7.7 88
41 4.1 51
96 9.6 50
52 5.2 50
44 4.4 74
5 0.5 46
8 0.8 99
70 7.0 88
64 6.4 59
41 4.1 5
18 1.8 69
31 3.1 60
98 9.8 74
86 8.6 80
73 7.3 10
50 5.0 47
19 1.9 8
93 9.3 95
41 4.1 5
77 7.7 96
74 7.4 39
27 2.7 97
25 2.5 47
73 7.3 72
60 6.0 1
79 7.9 59
56 5.6 24
99 9.9 68
78 7.8 33
13 1.3 21
30 3.0 22
99 9.9 30
39 3.9 28
10 1.0 93
39 3.9 62

75235
602

[1.3657276561597245 0.7272942136235901 2.2839153019115703 4.038587730771434 1.0059135985114973 0.31801916649106293 2.4742640178858624 1.8338589945946209 2.8917038612684642 1.9754127477901848 0.4390906384282704 0.8273177287451721 2.644200866590283 1.8424035765936633 3.5908864341095916 0.794077524714959 4.124107154730985 0.17838057865452658 2.5953765089362517 3.7734252313399654 2.8039600058247522 1.531724320357681 3.463260983842846 3.8735732346835383 0.871050123784138 2.0999205659097138 1.4817361717940216 1.7581640167751018 4.226035264566409 0.5982075713794685 1.313949004966662 4.027798432440718 4.097894663198951 1.3625510149361957 1.0834749216541084 3.724250904030639 0.010360877428680502 1.9313092936233547 0.38189726898360965 1.888822594107659 3.7732733155932787 4.3240953360970735 3.3677727222977887 2.312612824562861 1.7971095619645732 1.8842032560529356 3.734199423787273 1.0436591517094553 3.2876663389365555 2.1175713779463585 0.18814214093614978 3.4126325230966748 2.117655849037865 3.9844977968788178 2.1103971993095523 2.4430633084868125 1.6741550526584912 2.0276825925582314 0.09483041402759014 0.06456275387921709 3.4550273570963945 0.17399462501114646 1.5157176997511563 1.5798864372678012 0.3397758663697995 2.8439265347266387 1.792381269843895 3.6688697396080006 4.363358946468992 2.0524600705818417 0.8201410748251057 1.5198580896329916 3.0998363484836746 4.077220373957972 2.4161259998219644 3.738247233201735 0.48887753152987506 4.014138374922909 2.0352823547778076 2.3025938946444544 1.3625307986889594 3.5244130330958097 2.5724188795623153 0.7813048362237539 3.8665377465319555 0.8330693312593529 2.4040327981275644 2.9281028322253744 0.7625214205526673 2.8625501110214406 3.9909991828588978 2.7815961411003682 3.7804726530882666 0.8427965390786583 0.05014517189470555 3.610056295719459 0.8921964582114559 3.284222545551638 0.887371605108008 3.6544291902234844 2.153076039113507 4.0379969550779915 0.5047416392842967 0.3699029285917504 1.547610964599225 1.5131743618043108 3.2785830039627157 4.453537323595231 4.006106739413194 1.1811407008214325 3.6388509174229 3.770317979884149 3.225212005269655 0.8567318297874159 2.7463251182604047 1.8245073325573804 1.1467408317970775 2.028068660732526 4.053300062132464 2.4325978295451014 3.2497935572959245 2.6386689481928727 1.5506868018141615 4.612551723512355 3.4738664830889188 0.02492330836069818 3.5351715545774867 0.6178004189294238 2.2001368518194346 3.058485576706634]

[10 91 1 10 23 96 92 34 36 97 18 6 99 75 43 91 24 43 20 65 32 6 35 13 51 83 1 42 24 10 64 66 2 12 11 20 23 95 71 69 86 20 81 88 90 73 4 20 34 87 13 75 96 23 7 54 60 85 31 17 47 57 66 17 18 47 55 97 55 44 20 64 65 94 42 47 25 94 95 17 16 96 81 12 100 36 2 79 13 50 35 59 23 2 35 44 56 19 87 91 100 95 37 23 16 81 86 17 65 44 77 62 80 32 56 57 66 68 28 71 2 7 6 57 24 69 6 78 73 94]
